NAME : block_26.384984.tour
COMMENT : Length = 384984
COMMENT : Found by LKH-3 [Keld Helsgaun] Mon Feb  2 23:13:29 2026
TYPE : TOUR
DIMENSION : 110
TOUR_SECTION
35
26
2
110
1
27
37
49
61
60
48
36
47
59
71
72
73
84
83
92
93
101
100
107
108
109
102
94
85
74
62
50
38
28
19
13
20
29
39
51
63
75
86
95
103
104
96
87
76
64
52
40
30
21
14
8
4
3
5
9
15
22
31
41
53
65
77
88
97
105
106
98
89
78
66
54
42
32
23
16
10
6
7
11
17
12
18
25
24
33
34
44
43
55
67
79
90
99
91
80
68
56
57
69
81
82
70
58
46
45
-1
EOF
